Data path: /scratch/opt/lxu/CFLG/benchmarks/tree_A
Instance: treeA.100.15
Result path: /scratch/opt/lxu/CFLG/results/tree_A
Solver: Gurobi
Time limit: 7200
Formulation: LEFPAI
Cover: Small
julia --project=. src/main.jl /scratch/opt/lxu/CFLG/benchmarks/tree_A treeA.100.15 /scratch/opt/lxu/CFLG/results/tree_A Gurobi 7200 LEFPAI Small
The latest version of Julia in the `release` channel is 1.11.6+0.x64.linux.gnu. You currently have `1.11.4+0.x64.linux.gnu` installed. Run:

  juliaup update

in your terminal shell to install Julia 1.11.6+0.x64.linux.gnu and update the `release` channel to that version.
/scratch/opt/lxu/CFLG/benchmarks/tree_A Gurobi 7200.0 /scratch/opt/lxu/CFLG/results/tree_A treeA.100.15 LEFPAI Small
/scratch/opt/lxu/CFLG/benchmarks/tree_A/treeA.100.15

 read graph
data loaded


after absorb:61 100

max_piece:22
problem_graph/original graph: node: 61/100 edge: 75/114 dlt: 0.3797260369487119 break_avg_len: 2.3087343046481688 break_max_len: 8.109097690182406Vbar/V, Ebar/E(58, 61, 72, 75)
Set parameter TokenServer to value "solice01.zib.de"
Set parameter Threads to value 1
Set parameter OutputFlag to value 1
Gurobi Optimizer version 12.0.1 build v12.0.1rc0 (linux64 - "Debian GNU/Linux 12 (bookworm)")

CPU model: Intel(R) Xeon(R) Gold 5222 CPU @ 3.80GHz, instruction set [SSE2|AVX|AVX2|AVX512]
Thread count: 8 physical cores, 16 logical processors, using up to 1 threads

Non-default parameters:
Threads  1

Optimize a model with 132 rows, 219 columns and 365 nonzeros
Model fingerprint: 0xb6cacedf
Coefficient statistics:
  Matrix range     [1e+00, 1e+00]
  Objective range  [1e+00, 1e+00]
  Bounds range     [1e+00, 1e+00]
  RHS range        [1e+00, 1e+00]
Presolve removed 48 rows and 52 columns
Presolve time: 0.02s
Presolved: 84 rows, 167 columns, 265 nonzeros

Iteration    Objective       Primal Inf.    Dual Inf.      Time
       0    6.1000000e+01   2.800000e+01   0.000000e+00      0s
      47    3.5000000e+01   0.000000e+00   0.000000e+00      0s

Solved in 47 iterations and 0.02 seconds (0.00 work units)
Optimal objective  3.500000000e+01

User-callback calls 126, time in user-callback 0.00 sec
elapsed CPU time: 0.952035 seconds
Set parameter TokenServer to value "solice01.zib.de"
Set parameter Threads to value 1
Set parameter OutputFlag to value 1
Set parameter MIPGap to value 0.0001
Set parameter TimeLimit to value 7199.047965

 more cuts: false 0.3797260369487119 false
is_attach:trueformulation:LEFPAI72 1 1

 model loaded

Gurobi Optimizer version 12.0.1 build v12.0.1rc0 (linux64 - "Debian GNU/Linux 12 (bookworm)")

CPU model: Intel(R) Xeon(R) Gold 5222 CPU @ 3.80GHz, instruction set [SSE2|AVX|AVX2|AVX512]
Thread count: 8 physical cores, 16 logical processors, using up to 1 threads

Non-default parameters:
TimeLimit  7199.047965
Threads  1

Optimize a model with 899 rows, 690 columns and 1596 nonzeros
Model fingerprint: 0x11bbe6bb
Model has 209 simple general constraints
  209 INDICATOR
Variable types: 205 continuous, 485 integer (485 binary)
Coefficient statistics:
  Matrix range     [8e-04, 1e+00]
  Objective range  [1e+00, 1e+00]
  Bounds range     [2e-01, 8e+00]
  RHS range        [2e-01, 8e+00]
  GenCon rhs range [7e-02, 8e+00]
  GenCon coe range [1e+00, 1e+00]
Presolve removed 571 rows and 349 columns
Presolve time: 0.01s
Presolved: 328 rows, 341 columns, 959 nonzeros
Variable types: 159 continuous, 182 integer (182 binary)
Found heuristic solution: objective 232.0000000
Found heuristic solution: objective 229.0000000

Root relaxation: objective 2.035636e+02, 386 iterations, 0.00 seconds (0.00 work units)

    Nodes    |    Current Node    |     Objective Bounds      |     Work
 Expl Unexpl |  Obj  Depth IntInf | Incumbent    BestBd   Gap | It/Node Time

     0     0  203.56363    0   95  229.00000  203.56363  11.1%     -    0s
H    0     0                     226.0000000  203.56363  9.93%     -    0s
     0     0  209.16012    0  110  226.00000  209.16012  7.45%     -    0s
H    0     0                     223.0000000  209.16815  6.20%     -    0s
     0     0  209.23140    0  106  223.00000  209.23140  6.17%     -    0s
     0     0  209.23836    0  106  223.00000  209.23836  6.17%     -    0s
     0     0  209.23873    0  106  223.00000  209.23873  6.17%     -    0s
     0     0  212.04184    0   94  223.00000  212.04184  4.91%     -    0s
     0     0  212.10440    0   94  223.00000  212.10440  4.89%     -    0s
     0     0  212.11007    0  101  223.00000  212.11007  4.88%     -    0s
     0     0  212.11024    0  101  223.00000  212.11024  4.88%     -    0s
     0     0  213.28544    0   93  223.00000  213.28544  4.36%     -    0s
     0     0  213.29179    0   98  223.00000  213.29179  4.35%     -    0s
     0     0  214.27671    0  108  223.00000  214.27671  3.91%     -    0s
     0     0  214.32840    0  107  223.00000  214.32840  3.89%     -    0s
     0     0  214.33107    0  111  223.00000  214.33107  3.89%     -    0s
     0     0  214.44333    0  106  223.00000  214.44333  3.84%     -    0s
     0     0  214.45046    0  111  223.00000  214.45046  3.83%     -    0s
     0     0  214.56508    0  109  223.00000  214.56508  3.78%     -    0s
     0     0  215.03836    0  110  223.00000  215.03836  3.57%     -    0s
     0     0  215.03836    0  107  223.00000  215.03836  3.57%     -    0s
     0     0  215.03836    0  102  223.00000  215.03836  3.57%     -    0s
     0     2  215.05969    0  101  223.00000  215.05969  3.56%     -    0s
H  135    97                     222.0000000  215.33511  3.00%  12.9    0s
H 7081  1203                     221.0000000  219.00000  0.90%  13.6    3s
  9540  1850     cutoff   35       221.00000  219.00000  0.90%  14.3    5s
 10344  2134  220.00000   31   79  221.00000  219.00000  0.90%  14.3   10s
 15007   700     cutoff   52       221.00000  220.00000  0.45%  18.8   15s
 21269    70  220.00000   45   39  221.00000  220.00000  0.45%  20.8   20s
 27915    18  220.00000   46   26  221.00000  220.00000  0.45%  21.6   25s

Cutting planes:
  Learned: 1
  Gomory: 11
  Cover: 100
  Implied bound: 34
  Clique: 1
  MIR: 93
  Mixing: 7
  StrongCG: 1
  Flow cover: 260
  GUB cover: 3
  Inf proof: 3
  Zero half: 17
  RLT: 6
  Relax-and-lift: 11

Explored 28338 nodes (615112 simplex iterations) in 25.37 seconds (17.78 work units)
Thread count was 1 (of 16 available processors)

Solution count 6: 221 222 223 ... 232

Optimal solution found (tolerance 1.00e-04)
Warning: max constraint violation (1.0000e-06) exceeds tolerance
Best objective 2.210000000000e+02, best bound 2.210000000000e+02, gap 0.0000%

User-callback calls 67375, time in user-callback 0.03 sec

 sepatime0 0 0
221.0
Stat(MathOptInterface.OPTIMAL, 221.0, 221.0, 0.0, 0.0, 0.952035, 25.371023893356323, 28338, Main.CFLG.LEFPAI, "", #undef)
